59065
58569
51829
58891
51786
57108
57417
56664
51992
59519
51872
54835
56882
51778
55670
59132
52645
58858
55844
51293
57312
58866
51310
57823
55492
56265
58227
52488
52425
50093
56684
50296
59465
53620
59229
58876
50886
54315
53881
58052
59949
50990
57465
50893
56264
56362
57283
54709
57333
51396
59990
58656
55974
57888
50758
55092
52731
51073
51042
53228
56524
57728
52441
59041
50858
59650
51901
56679
55010
59055
50616
59602
55686
51926
50723
53331
56324
55320
53228
57152
51757
55005
53094
57880
57250
59200
50325
59942
57505
55900
58372
52369
54929
57093
51000
51767
57085
59429
52811
59326
